Gurobi Optimizer version 9.1.2 build v9.1.2rc0 (linux64)
Thread count: 36 physical cores, 72 logical processors, using up to 32 threads
Optimize a model with 12 rows, 57 columns and 590 nonzeros
Model fingerprint: 0xf32eec78
Model has 47 quadratic constraints
Coefficient statistics:
  Matrix range     [2e-05, 3e+00]
  QMatrix range    [1e+00, 1e+00]
  QLMatrix range   [1e+00, 1e+00]
  Objective range  [8e-03, 7e-01]
  Bounds range     [1e+00, 1e+00]
  RHS range        [1e+00, 1e+00]
Presolve removed 9 rows and 0 columns

Continuous model is non-convex -- solving as a MIP.

Presolve removed 9 rows and 0 columns
Presolve time: 0.00s
Presolved: 189 rows, 57 columns, 443 nonzeros
Presolved model has 47 bilinear constraint(s)
Variable types: 57 continuous, 0 integer (0 binary)

Root relaxation: objective -1.743721e+00, 44 iterations, 0.00 seconds

    Nodes    |    Current Node    |     Objective Bounds      |     Work
 Expl Unexpl |  Obj  Depth IntInf | Incumbent    BestBd   Gap | It/Node Time

     0     0   -1.74372    0   38          -   -1.74372      -     -    0s
H    0     0                       0.6147548   -1.74372   384%     -    0s
     0     0   -1.64739    0    1    0.61475   -1.64739   368%     -    0s
H    0     0                      -1.6450460   -1.64739  0.14%     -    0s
     0     0     cutoff    0        -1.64505   -1.64505  0.00%     -    0s

Cutting planes:
  RLT: 25
  BQP: 3

Explored 1 nodes (76 simplex iterations) in 0.01 seconds
Thread count was 32 (of 72 available processors)

Solution count 2: -1.64505 0.614755 
No other solutions better than -1.64505

Optimal solution found (tolerance 1.00e-04)
Best objective -1.645045978473e+00, best bound -1.645045978473e+00, gap 0.0000%

User-callback calls 78, time in user-callback 0.00 sec
Gurobi Optimizer version 9.1.2 build v9.1.2rc0 (linux64)
Thread count: 36 physical cores, 72 logical processors, using up to 32 threads
Optimize a model with 60 rows, 312 columns and 16100 nonzeros
Model fingerprint: 0x0f3f4b02
Model has 262 quadratic constraints
Coefficient statistics:
  Matrix range     [4e-07, 7e+00]
  QMatrix range    [1e+00, 1e+00]
  QLMatrix range   [1e+00, 1e+00]
  Objective range  [4e-03, 1e+00]
  Bounds range     [1e+00, 1e+00]
  RHS range        [1e+00, 1e+00]
Presolve removed 14 rows and 0 columns

Continuous model is non-convex -- solving as a MIP.

Presolve removed 14 rows and 0 columns
Presolve time: 0.01s
Presolved: 1082 rows, 312 columns, 13758 nonzeros
Presolved model has 262 bilinear constraint(s)
Variable types: 312 continuous, 0 integer (0 binary)

Root relaxation: objective -2.397351e+01, 307 iterations, 0.02 seconds

    Nodes    |    Current Node    |     Objective Bounds      |     Work
 Expl Unexpl |  Obj  Depth IntInf | Incumbent    BestBd   Gap | It/Node Time

     0     0  -23.97351    0  156          -  -23.97351      -     -    0s
     0     0  -22.74808    0   86          -  -22.74808      -     -    0s
     0     0  -22.71011    0   86          -  -22.71011      -     -    0s
     0     0  -22.64680    0   86          -  -22.64680      -     -    0s
     0     0  -22.64415    0   86          -  -22.64415      -     -    0s
     0     0  -22.62714    0   86          -  -22.62714      -     -    0s
     0     0  -22.62647    0   86          -  -22.62647      -     -    0s
     0     0  -22.62079    0   91          -  -22.62079      -     -    0s
     0     0  -22.62039    0   91          -  -22.62039      -     -    0s
     0     0  -22.61756    0   91          -  -22.61756      -     -    0s
     0     0  -22.61743    0   91          -  -22.61743      -     -    0s
     0     0  -22.61284    0   91          -  -22.61284      -     -    0s
     0     0  -22.61277    0   91          -  -22.61277      -     -    0s
     0     0  -22.61271    0   83          -  -22.61271      -     -    0s
     0     0  -22.61248    0   83          -  -22.61248      -     -    0s
     0     0  -22.61222    0   91          -  -22.61222      -     -    0s
     0     0  -22.61221    0   91          -  -22.61221      -     -    0s
     0     0  -22.61221    0   91          -  -22.61221      -     -    0s
     0     2  -22.61221    0   91          -  -22.61221      -     -    0s
* 1830  1967              54     -20.9469279  -21.41459  2.23%  58.6    1s
* 2586  1906              62     -20.9469881  -21.38210  2.08%  57.6    2s
* 2587  1906              62     -20.9469941  -21.38210  2.08%  57.6    2s
* 2925  1920              65     -20.9586441  -21.38210  2.02%  57.7    2s
* 4416   857              53     -20.9587304  -21.38210  2.02%  59.0    3s
* 6534   844              71     -20.9618571  -21.38210  2.00%  54.0    4s
* 6535   844              71     -20.9618714  -21.38210  2.00%  54.0    4s
  7278  1055  -21.36874   22   74  -20.96187  -21.38210  2.00%  52.3    5s
* 8489  1292              68     -20.9619117  -21.35540  1.88%  49.7    5s
* 9435  1533              70     -20.9663040  -21.25139  1.36%  47.7    5s
* 9582  1649              72     -20.9686555  -21.24086  1.30%  47.4    5s
* 9584  1649              73     -20.9686556  -21.24086  1.30%  47.4    5s
* 9585  1649              73     -20.9686556  -21.24086  1.30%  47.4    5s
* 9586  1649              71     -20.9686562  -21.24086  1.30%  47.4    5s
* 9615  1649              70     -20.9686592  -21.24086  1.30%  47.4    5s
*11761  1875              60     -20.9795995  -21.16143  0.87%  44.9    6s
*13727  2029              66     -20.9808578  -21.13710  0.74%  43.1    6s
*13730  2029              67     -20.9808982  -21.13710  0.74%  43.1    6s
*13790  2028              81     -20.9809047  -21.13710  0.74%  43.0    6s
*13791  2028              81     -20.9809074  -21.13710  0.74%  43.0    6s
*13792  2028              79     -20.9809557  -21.13710  0.74%  43.0    6s
*14274  2042              68     -20.9809824  -21.13518  0.73%  42.5    6s
*14275  2042              68     -20.9809835  -21.13518  0.73%  42.5    6s
*15803  2174              53     -20.9810766  -21.11195  0.62%  41.2    7s
*15804  2174              53     -20.9810895  -21.11195  0.62%  41.2    7s
*15809  2171              53     -20.9811051  -21.11195  0.62%  41.2    7s
*16380  2230              53     -20.9811065  -21.10633  0.60%  40.9    7s
*17090  2454              61     -20.9812011  -21.10043  0.57%  40.7    7s
*17091  2454              61     -20.9812067  -21.10043  0.57%  40.7    7s
*17097  2454              62     -20.9812076  -21.10043  0.57%  40.6    7s
*17099  2454              62     -20.9812086  -21.10043  0.57%  40.6    7s
*17100  2454              62     -20.9812092  -21.10043  0.57%  40.6    7s
*17983  2624              64     -20.9813558  -21.09446  0.54%  40.2    7s
*17984  2619              64     -20.9814046  -21.09446  0.54%  40.2    7s
*19847  3037              64     -20.9814655  -21.08151  0.48%  39.1    8s
*19850  3037              64     -20.9814688  -21.08151  0.48%  39.1    8s
*20119  2693              64     -20.9859012  -21.08021  0.45%  38.9    8s
*20120  2693              64     -20.9859094  -21.08021  0.45%  38.9    8s
*20123  2687              65     -20.9859862  -21.08021  0.45%  38.9    8s
*20128  2687              65     -20.9859878  -21.08021  0.45%  38.9    8s
*20795  1787              68     -21.0110731  -21.07701  0.31%  38.6    8s
*27131   842              63     -21.0110734  -21.03092  0.09%  36.6    9s
*27133   842              64     -21.0110861  -21.03092  0.09%  36.5    9s
*27138   842              64     -21.0110861  -21.03092  0.09%  36.5    9s
*27139   842              64     -21.0110865  -21.03092  0.09%  36.5    9s
*27464   842              62     -21.0110941  -21.03092  0.09%  36.3    9s
*27465   842              62     -21.0111059  -21.03092  0.09%  36.3    9s
*27470   842              62     -21.0111067  -21.03092  0.09%  36.3    9s
*28165   770              62     -21.0112809  -21.02614  0.07%  36.2    9s
*28921   770              59     -21.0116231  -21.02360  0.06%  35.6    9s
*28923   770              60     -21.0116291  -21.02360  0.06%  35.6    9s
*29133   770              59     -21.0117237  -21.02360  0.06%  35.5    9s
*29134   770              59     -21.0117325  -21.02360  0.06%  35.5    9s
*29137   770              59     -21.0117394  -21.02360  0.06%  35.5    9s
 29516   667  -21.01234   48   20  -21.01174  -21.02166  0.05%  35.3   10s
*29599   667              65     -21.0117779  -21.02162  0.05%  35.2   10s
*29602   667              65     -21.0117792  -21.02162  0.05%  35.2   10s
*29632   667              63     -21.0117955  -21.02162  0.05%  35.2   10s
*29633   667              63     -21.0118325  -21.02162  0.05%  35.2   10s
*29641   667              65     -21.0118351  -21.02162  0.05%  35.2   10s
*29648   667              63     -21.0118364  -21.02162  0.05%  35.2   10s
*29830   667              66     -21.0122535  -21.02162  0.04%  35.0   10s
*29831   667              66     -21.0122606  -21.02162  0.04%  35.0   10s
*31329   206              67     -21.0122975  -21.01593  0.02%  33.9   10s
*31330   206              67     -21.0123056  -21.01593  0.02%  33.9   10s
*31333   206              66     -21.0123088  -21.01593  0.02%  33.9   10s
*31366   206              65     -21.0123090  -21.01593  0.02%  33.9   10s
*31368   206              66     -21.0123115  -21.01593  0.02%  33.9   10s

Explored 32257 nodes (1070904 simplex iterations) in 10.35 seconds
Thread count was 32 (of 72 available processors)

Solution count 10: -21.0123 -21.0123 -21.0123 ... -21.0118

Optimal solution found (tolerance 1.00e-04)
Best objective -2.101231145139e+01, best bound -2.101310317318e+01, gap 0.0038%

User-callback calls 65748, time in user-callback 0.01 sec



objective value: -21.012311451394403
objective bound: -21.013103173181527
x_opt: [0.9430345323775688, 0.9777744971282429, 0.0, 0.5133523233019597, 0.0, 0.0, 1.0, 0.0, 0.0, 0.0, 1.0, 0.0, 1.0, 1.0, 0.5745860523673112, 1.0, 0.0, 1.0, 0.0, 0.0, 0.48890062848874, 0.21741818632843962, 0.0, 0.5763311064440163, 0.0, 0.8557732943344685, 0.0, 1.0, 0.0, 0.0, 1.0, 1.0, 0.0, 0.46640403804403746, 1.0, 1.0, 0.0, 1.0, 0.0, 1.0, 1.0, 0.0, 1.0, 0.05125376866899268, 0.0, 0.0, 0.5447653045957976, 0.4846726443503285, 0.38899628507643064, 0.0]
GUROBI solution time: 10.353180885314941




